50

100 6 303
100 10 418
96 24 308
94 35 435
90 31 314
88 43 280
87 22 367
85 26 404
83 4 357
81 22 356
80 30 244
80 29 278
77 36 418
74 4 396
65 13 231
62 13 278
62 17 381
62 19 298
61 28 398
59 8 360
59 11 239
57 26 350
54 16 322
51 7 411
45 16 435
45 23 290
40 20 306
38 5 304
37 16 251
37 18 439
37 19 408
36 12 376
29 12 337
29 1 448
27 9 142
26 9 433
22 2 83
22 3 159
21 1 421
17 9 225
14 5 96
14 2 444
8 2 189
7 2 427
6 1 376
5 1 122
5 2 263
3 1 90
3 2 197
1 1 376
